NAME: random-84-16336
TYPE: TSP
COMMENT: size=84 seed=16336
DIMENSION: 170
EDGE_WEIGHT_TYPE: EUC_2D
NODE_COORD_SECTION
+0 152 908
-0 152 908
+1 639 720
-1 888 425
+2 16 181
-2 32 645
+3 934 204
-3 801 517
+4 811 69
-4 79 755
+5 268 91
-5 437 999
+6 326 759
-6 470 154
+7 811 822
-7 55 739
+8 343 287
-8 632 474
+9 846 732
-9 261 560
+10 267 442
-10 213 914
+11 939 331
-11 862 132
+12 446 489
-12 249 220
+13 940 154
-13 852 800
+14 955 248
-14 836 525
+15 226 849
-15 666 547
+16 437 965
-16 763 234
+17 754 500
-17 315 691
+18 38 952
-18 149 715
+19 131 850
-19 120 230
+20 259 175
-20 771 174
+21 311 772
-21 458 794
+22 967 923
-22 745 740
+23 782 904
-23 240 283
+24 619 570
-24 15 489
+25 617 371
-25 579 497
+26 415 602
-26 596 659
+27 474 223
-27 542 688
+28 147 303
-28 431 643
+29 689 739
-29 523 322
+30 918 357
-30 881 439
+31 687 283
-31 281 487
+32 131 243
-32 129 796
+33 167 162
-33 318 405
+34 59 962
-34 432 725
+35 160 487
-35 973 412
+36 215 421
-36 588 628
+37 214 956
-37 332 28
+38 394 23
-38 439 415
+39 461 574
-39 795 343
+40 272 62
-40 895 680
+41 407 921
-41 271 544
+42 710 230
-42 415 235
+43 233 65
-43 64 944
+44 749 495
-44 257 453
+45 637 876
-45 934 411
+46 677 508
-46 309 704
+47 686 359
-47 778 793
+48 184 755
-48 491 927
+49 85 304
-49 272 688
+50 999 383
-50 326 679
+51 330 118
-51 963 347
+52 1 731
-52 421 399
+53 564 673
-53 32 466
+54 728 645
-54 644 783
+55 882 976
-55 824 681
+56 574 915
-56 835 989
+57 243 958
-57 177 427
+58 989 993
-58 348 290
+59 312 998
-59 269 55
+60 680 479
-60 141 497
+61 213 287
-61 449 965
+62 211 220
-62 761 310
+63 937 985
-63 278 783
+64 805 917
-64 25 743
+65 524 961
-65 56 735
+66 584 180
-66 173 624
+67 4 23
-67 74 487
+68 104 157
-68 875 159
+69 298 709
-69 853 377
+70 240 384
-70 93 678
+71 402 39
-71 165 752
+72 762 681
-72 20 672
+73 522 241
-73 240 932
+74 880 96
-74 737 135
+75 477 164
-75 441 467
+76 866 700
-76 244 831
+77 872 782
-77 401 370
+78 96 101
-78 713 228
+79 560 169
-79 592 660
+80 789 520
-80 104 762
+81 50 834
-81 516 463
+82 855 982
-82 388 272
+83 932 44
-83 510 455
+84 730 694
-84 560 436
PRECEDENCE_SECTION
+0 -0
+1 -1
+2 -2
+3 -3
+4 -4
+5 -5
+6 -6
+7 -7
+8 -8
+9 -9
+10 -10
+11 -11
+12 -12
+13 -13
+14 -14
+15 -15
+16 -16
+17 -17
+18 -18
+19 -19
+20 -20
+21 -21
+22 -22
+23 -23
+24 -24
+25 -25
+26 -26
+27 -27
+28 -28
+29 -29
+30 -30
+31 -31
+32 -32
+33 -33
+34 -34
+35 -35
+36 -36
+37 -37
+38 -38
+39 -39
+40 -40
+41 -41
+42 -42
+43 -43
+44 -44
+45 -45
+46 -46
+47 -47
+48 -48
+49 -49
+50 -50
+51 -51
+52 -52
+53 -53
+54 -54
+55 -55
+56 -56
+57 -57
+58 -58
+59 -59
+60 -60
+61 -61
+62 -62
+63 -63
+64 -64
+65 -65
+66 -66
+67 -67
+68 -68
+69 -69
+70 -70
+71 -71
+72 -72
+73 -73
+74 -74
+75 -75
+76 -76
+77 -77
+78 -78
+79 -79
+80 -80
+81 -81
+82 -82
+83 -83
+84 -84
EOF
